docs/2022-03-21-ModelsBigM/BigMLazyCon_20.log
CPXPARAM_MIP_Tolerances_MIPGap                   0
Lazy constraint(s) or lazy constraint callback is present.
    Disabling dual reductions (CPX_PARAM_REDUCE) in presolve.
    Disabling non-linear reductions (CPX_PARAM_PRELINEAR) in presolve.
         Disabling repeat represolve because of lazy constraint/incumbent callback.
Tried aggregator 1 time.
MIP Presolve eliminated 221 rows and 8 columns.
MIP Presolve modified 1 coefficients.
Reduced MIP has 102 rows, 229 columns, and 210 nonzeros.
Reduced MIP has 139 binaries, 0 generals, 0 SOSs, and 0 indicators.
Presolve time = 0.00 sec. (0.19 ticks)
Probing time = 0.00 sec. (0.04 ticks)
Clique table members: 17.
MIP emphasis: balance optimality and feasibility.
MIP search method: traditional branch-and-cut.
Parallel mode: none, using 1 thread.
Root relaxation solution time = 0.00 sec. (0.12 ticks)

        Nodes                                         Cuts/
   Node  Left     Objective  IInf  Best Integer    Best Bound    ItCnt     Gap         Variable B NodeID Parent  Depth

      0     0        8.0000     3                      8.0000        3         
      0     0       11.0000     2                    Cuts: 19       29         
*     0+    0                           11.0000       11.0000             0.00%
      0     0        cutoff             11.0000       11.0000       29    0.00%                        0             0
Elapsed time = 0.00 sec. (1.38 ticks, tree = 0.01 MB, solutions = 1)

Clique cuts applied:  10
Implied bound cuts applied:  5
Mixed integer rounding cuts applied:  2
User cuts applied:  8

Root node processing (before b&c):
  Real time             =    0.00 sec. (1.39 ticks)
Sequential b&c:
  Real time             =    0.00 sec. (0.00 ticks)
                          ------------
Total (root+branch&cut) =    0.00 sec. (1.39 ticks)
